(set-info :smt-lib-version 2.6)
(set-logic UFNIA)
(set-info :source |
Generated by: Geoff Sutcliffe
Generated on: 2026-03-11
Generator: TPTPWorld
Application: Benchmarking automated theorem provers
Time limit: 120.0

These benchmarks are translations from the TPTP Library (Thousands of
Problems for Theorem Provers), see http://www.cs.miami.edu/~tptp/

The TPTP is maintained by Geoff Sutcliffe, and he contributed this
selection of benchmarks to SMT-LIB.  They were exported from the
v9.2.1 realease of TPTP.
|)
(set-info :category "industrial")
(set-info :status "unknown")
; SZS status Success
(declare-sort $$unsorted 0)
(declare-sort tptp.uni 0)
(declare-sort tptp.ty 0)
(declare-fun tptp.sort1 (tptp.ty tptp.uni) Bool)
(declare-fun tptp.witness1 (tptp.ty) tptp.uni)
(assert (forall ((A tptp.ty)) (tptp.sort1 A (tptp.witness1 A))))
(declare-fun tptp.int () tptp.ty)
(declare-fun tptp.real () tptp.ty)
(declare-sort tptp.bool1 0)
(declare-fun tptp.bool () tptp.ty)
(declare-fun tptp.true1 () tptp.bool1)
(declare-fun tptp.false1 () tptp.bool1)
(declare-fun tptp.match_bool1 (tptp.ty tptp.bool1 tptp.uni tptp.uni) tptp.uni)
(assert (forall ((A tptp.ty) (X tptp.bool1) (X1 tptp.uni) (X2 tptp.uni)) (tptp.sort1 A (tptp.match_bool1 A X X1 X2))))
(assert (forall ((A tptp.ty) (Z tptp.uni) (Z1 tptp.uni)) (=> (tptp.sort1 A Z) (= (tptp.match_bool1 A tptp.true1 Z Z1) Z))))
(assert (forall ((A tptp.ty) (Z tptp.uni) (Z1 tptp.uni)) (=> (tptp.sort1 A Z1) (= (tptp.match_bool1 A tptp.false1 Z Z1) Z1))))
(assert (not (= tptp.true1 tptp.false1)))
(assert (forall ((U tptp.bool1)) (or (= U tptp.true1) (= U tptp.false1))))
(declare-sort tptp.tuple02 0)
(declare-fun tptp.tuple0 () tptp.ty)
(declare-fun tptp.tuple03 () tptp.tuple02)
(assert (forall ((U tptp.tuple02)) (= U tptp.tuple03)))
(declare-fun tptp.qtmark () tptp.ty)
(assert (forall ((X Int) (Y Int) (Z Int)) (=> (<= X Y) (=> (<= 0 Z) (<= (* X Z) (* Y Z))))))
(declare-fun tptp.list (tptp.ty) tptp.ty)
(declare-fun tptp.nil (tptp.ty) tptp.uni)
(assert (forall ((A tptp.ty)) (tptp.sort1 (tptp.list A) (tptp.nil A))))
(declare-fun tptp.cons (tptp.ty tptp.uni tptp.uni) tptp.uni)
(assert (forall ((A tptp.ty) (X tptp.uni) (X1 tptp.uni)) (tptp.sort1 (tptp.list A) (tptp.cons A X X1))))
(declare-fun tptp.match_list1 (tptp.ty tptp.ty tptp.uni tptp.uni tptp.uni) tptp.uni)
(assert (forall ((A tptp.ty) (A1 tptp.ty) (X tptp.uni) (X1 tptp.uni) (X2 tptp.uni)) (tptp.sort1 A1 (tptp.match_list1 A1 A X X1 X2))))
(assert (forall ((A tptp.ty) (A1 tptp.ty) (Z tptp.uni) (Z1 tptp.uni)) (=> (tptp.sort1 A1 Z) (= (tptp.match_list1 A1 A (tptp.nil A) Z Z1) Z))))
(assert (forall ((A tptp.ty) (A1 tptp.ty) (Z tptp.uni) (Z1 tptp.uni) (U tptp.uni) (U1 tptp.uni)) (=> (tptp.sort1 A1 Z1) (= (tptp.match_list1 A1 A (tptp.cons A U U1) Z Z1) Z1))))
(assert (forall ((A tptp.ty) (V tptp.uni) (V1 tptp.uni)) (not (= (tptp.nil A) (tptp.cons A V V1)))))
(declare-fun tptp.cons_proj_11 (tptp.ty tptp.uni) tptp.uni)
(assert (forall ((A tptp.ty) (X tptp.uni)) (tptp.sort1 A (tptp.cons_proj_11 A X))))
(assert (forall ((A tptp.ty) (U tptp.uni) (U1 tptp.uni)) (=> (tptp.sort1 A U) (= (tptp.cons_proj_11 A (tptp.cons A U U1)) U))))
(declare-fun tptp.cons_proj_21 (tptp.ty tptp.uni) tptp.uni)
(assert (forall ((A tptp.ty) (X tptp.uni)) (tptp.sort1 (tptp.list A) (tptp.cons_proj_21 A X))))
(assert (forall ((A tptp.ty) (U tptp.uni) (U1 tptp.uni)) (= (tptp.cons_proj_21 A (tptp.cons A U U1)) U1)))
(assert (forall ((A tptp.ty) (U tptp.uni)) (or (= U (tptp.nil A)) (= U (tptp.cons A (tptp.cons_proj_11 A U) (tptp.cons_proj_21 A U))))))
(declare-fun tptp.length1 (tptp.ty tptp.uni) Int)
(assert (forall ((A tptp.ty)) (and (= (tptp.length1 A (tptp.nil A)) 0) (forall ((X tptp.uni) (X1 tptp.uni)) (= (tptp.length1 A (tptp.cons A X X1)) (+ 1 (tptp.length1 A X1)))))))
(assert (forall ((A tptp.ty) (L tptp.uni)) (<= 0 (tptp.length1 A L))))
(assert (forall ((A tptp.ty) (L tptp.uni)) (= (= (tptp.length1 A L) 0) (= L (tptp.nil A)))))
(declare-fun tptp.option (tptp.ty) tptp.ty)
(declare-fun tptp.none (tptp.ty) tptp.uni)
(assert (forall ((A tptp.ty)) (tptp.sort1 (tptp.option A) (tptp.none A))))
(declare-fun tptp.some (tptp.ty tptp.uni) tptp.uni)
(assert (forall ((A tptp.ty) (X tptp.uni)) (tptp.sort1 (tptp.option A) (tptp.some A X))))
(declare-fun tptp.match_option1 (tptp.ty tptp.ty tptp.uni tptp.uni tptp.uni) tptp.uni)
(assert (forall ((A tptp.ty) (A1 tptp.ty) (X tptp.uni) (X1 tptp.uni) (X2 tptp.uni)) (tptp.sort1 A1 (tptp.match_option1 A1 A X X1 X2))))
(assert (forall ((A tptp.ty) (A1 tptp.ty) (Z tptp.uni) (Z1 tptp.uni)) (=> (tptp.sort1 A1 Z) (= (tptp.match_option1 A1 A (tptp.none A) Z Z1) Z))))
(assert (forall ((A tptp.ty) (A1 tptp.ty) (Z tptp.uni) (Z1 tptp.uni) (U tptp.uni)) (=> (tptp.sort1 A1 Z1) (= (tptp.match_option1 A1 A (tptp.some A U) Z Z1) Z1))))
(assert (forall ((A tptp.ty) (V tptp.uni)) (not (= (tptp.none A) (tptp.some A V)))))
(declare-fun tptp.some_proj_11 (tptp.ty tptp.uni) tptp.uni)
(assert (forall ((A tptp.ty) (X tptp.uni)) (tptp.sort1 A (tptp.some_proj_11 A X))))
(assert (forall ((A tptp.ty) (U tptp.uni)) (=> (tptp.sort1 A U) (= (tptp.some_proj_11 A (tptp.some A U)) U))))
(assert (forall ((A tptp.ty) (U tptp.uni)) (=> (tptp.sort1 (tptp.option A) U) (or (= U (tptp.none A)) (= U (tptp.some A (tptp.some_proj_11 A U)))))))
(declare-fun tptp.nth1 (tptp.ty Int tptp.uni) tptp.uni)
(assert (forall ((A tptp.ty) (X Int) (X1 tptp.uni)) (tptp.sort1 (tptp.option A) (tptp.nth1 A X X1))))
(assert (forall ((A tptp.ty) (N Int)) (and (= (tptp.nth1 A N (tptp.nil A)) (tptp.none A)) (forall ((X tptp.uni) (X1 tptp.uni)) (let ((_let_1 (tptp.nth1 A N (tptp.cons A X X1)))) (let ((_let_2 (= N 0))) (and (=> _let_2 (= _let_1 (tptp.some A X))) (=> (not _let_2) (= _let_1 (tptp.nth1 A (- N 1) X1))))))))))
(declare-sort tptp.list_int 0)
(declare-fun tptp.zero_at1 (tptp.list_int Int) Bool)
(declare-sort tptp.option_int 0)
(declare-fun tptp.t2tb (tptp.option_int) tptp.uni)
(assert (forall ((X tptp.option_int)) (tptp.sort1 (tptp.option tptp.int) (tptp.t2tb X))))
(declare-fun tptp.tb2t (tptp.uni) tptp.option_int)
(assert (forall ((I tptp.option_int)) (= (tptp.tb2t (tptp.t2tb I)) I)))
(assert (forall ((J tptp.uni)) (= (tptp.t2tb (tptp.tb2t J)) J)))
(declare-fun tptp.t2tb1 (tptp.list_int) tptp.uni)
(assert (forall ((X tptp.list_int)) (tptp.sort1 (tptp.list tptp.int) (tptp.t2tb1 X))))
(declare-fun tptp.tb2t1 (tptp.uni) tptp.list_int)
(assert (forall ((I tptp.list_int)) (= (tptp.tb2t1 (tptp.t2tb1 I)) I)))
(assert (forall ((J tptp.uni)) (= (tptp.t2tb1 (tptp.tb2t1 J)) J)))
(declare-fun tptp.t2tb2 (Int) tptp.uni)
(assert (forall ((X Int)) (tptp.sort1 tptp.int (tptp.t2tb2 X))))
(declare-fun tptp.tb2t2 (tptp.uni) Int)
(assert (forall ((I Int)) (= (tptp.tb2t2 (tptp.t2tb2 I)) I)))
(assert (forall ((J tptp.uni)) (= (tptp.t2tb2 (tptp.tb2t2 J)) J)))
(assert (forall ((L tptp.list_int) (I Int)) (= (tptp.zero_at1 L I) (and (= (tptp.tb2t (tptp.nth1 tptp.int I (tptp.t2tb1 L))) (tptp.tb2t (tptp.some tptp.int (tptp.t2tb2 0)))) (forall ((J Int)) (=> (and (<= 0 J) (< J I)) (not (= (tptp.tb2t (tptp.nth1 tptp.int J (tptp.t2tb1 L))) (tptp.tb2t (tptp.some tptp.int (tptp.t2tb2 0)))))))))))
(declare-fun tptp.no_zero1 (tptp.list_int) Bool)
(assert (forall ((L tptp.list_int)) (= (tptp.no_zero1 L) (forall ((J Int)) (let ((_let_1 (tptp.t2tb1 L))) (=> (and (<= 0 J) (< J (tptp.length1 tptp.int _let_1))) (not (= (tptp.tb2t (tptp.nth1 tptp.int J _let_1)) (tptp.tb2t (tptp.some tptp.int (tptp.t2tb2 0)))))))))))
(declare-fun tptp.ref (tptp.ty) tptp.ty)
(declare-fun tptp.mk_ref (tptp.ty tptp.uni) tptp.uni)
(assert (forall ((A tptp.ty) (X tptp.uni)) (tptp.sort1 (tptp.ref A) (tptp.mk_ref A X))))
(declare-fun tptp.contents (tptp.ty tptp.uni) tptp.uni)
(assert (forall ((A tptp.ty) (X tptp.uni)) (tptp.sort1 A (tptp.contents A X))))
(assert (forall ((A tptp.ty) (U tptp.uni)) (=> (tptp.sort1 A U) (= (tptp.contents A (tptp.mk_ref A U)) U))))
(assert (forall ((A tptp.ty) (U tptp.uni)) (=> (tptp.sort1 (tptp.ref A) U) (= U (tptp.mk_ref A (tptp.contents A U))))))
(declare-fun tptp.hd (tptp.ty tptp.uni) tptp.uni)
(assert (forall ((A tptp.ty) (X tptp.uni)) (tptp.sort1 (tptp.option A) (tptp.hd A X))))
(assert (forall ((A tptp.ty)) (and (= (tptp.hd A (tptp.nil A)) (tptp.none A)) (forall ((X tptp.uni) (X1 tptp.uni)) (= (tptp.hd A (tptp.cons A X X1)) (tptp.some A X))))))
(declare-fun tptp.tl (tptp.ty tptp.uni) tptp.uni)
(assert (forall ((A tptp.ty) (X tptp.uni)) (tptp.sort1 (tptp.option (tptp.list A)) (tptp.tl A X))))
(assert (forall ((A tptp.ty)) (and (= (tptp.tl A (tptp.nil A)) (tptp.none (tptp.list A))) (forall ((X tptp.uni) (X1 tptp.uni)) (= (tptp.tl A (tptp.cons A X X1)) (tptp.some (tptp.list A) X1))))))
(assert (not (forall ((L tptp.list_int) (S tptp.list_int) (I Int)) (let ((_let_1 (not (= S (tptp.tb2t1 (tptp.nil tptp.int)))))) (=> (and (<= 0 I) (= (+ I (tptp.length1 tptp.int (tptp.t2tb1 S))) (tptp.length1 tptp.int (tptp.t2tb1 L))) (forall ((J Int)) (=> (<= 0 J) (= (tptp.tb2t (tptp.nth1 tptp.int J (tptp.t2tb1 S))) (tptp.tb2t (tptp.nth1 tptp.int (+ I J) (tptp.t2tb1 L)))))) (forall ((J Int)) (=> (and (<= 0 J) (< J I)) (not (= (tptp.tb2t (tptp.nth1 tptp.int J (tptp.t2tb1 L))) (tptp.tb2t (tptp.some tptp.int (tptp.t2tb2 0)))))))) (=> _let_1 (=> _let_1 (forall ((O Int)) (let ((_let_1 (tptp.length1 tptp.int (tptp.t2tb1 L)))) (=> (exists ((X Int) (X1 tptp.list_int)) (and (= S (tptp.tb2t1 (tptp.cons tptp.int (tptp.t2tb2 X) (tptp.t2tb1 X1)))) (= O X))) (=> (not (not (= O 0))) (or (and (<= 0 I) (< I _let_1) (tptp.zero_at1 L I)) (and (= I _let_1) (tptp.no_zero1 L))))))))))))))
(check-sat)
